20
440356 925328
79368 164044
945895 1966178
666364 1440910
594595 1288193
358461 741301
666020 1241063
801970 1447446
716869 1388189
431640 916476
576028 1240551
308237 639466
541552 1124003
879694 1867028
18964 40187
741144 1361579
410306 770874
24327 44934
868689 1671823
57104 119080
5063791